589623
155,112,133,229,162,1,72,63,32,118,49,71,140,135,83,157,74,67,39,207,147,127,163,178,43,31,199,159,208,3,138,185,189,16,60,137,117,20,183,210,7,36,94,35,87,62,102,169,27,40,81,130,55,151,108,50,28,78,215,75,205,34,37,192,179,196,107,89,96,166,184,116,161,101,9,68,91,22,26,144,145,211,156,5,64,30,220,44,223,176,17,47,225,13,194,165,120,97,15,8,110,14,201,10,191,152,122,177,226,69,23,51,98,42,160,113,73,209,126,70,86,114,29,84,193,195,119,218,206,136,181,173,148,131,124,188,85,167,79,95,57,76,174,198,200,65,154,164,214,125,227,134,48,111,19,46,197,143,11,139,58,59,221,213,93,52,123,25,61,182,80,132,149,115,2,204,172,168,45,212,230,104,6,203,38,224,33,129,153,217,21,4,142,170,90,150,171,186,109,228,88,146,12,187,103,82,158,180,121,77,222,41,128,106,141,219,24,66,190,99,202,105,216,100,53,92,175,54,18,56